assignment_problem/model.ilp
\ Model _copy
\ LP format - for model browsing. Use MPS format to capture full model detail.
Minimize
 
Subject To
 WK_AV: WK[0][3] <= 0
 WK_AV: WK[1][3] <= 0
 WK_AV: WK[3][3] <= 0
 WK_AV: WK[5][3] <= 0
 WK_AV: WK[7][3] <= 0
 GET_SHIFT: WK[0][3] + WK[1][3] + WK[2][3] + WK[3][3] + WK[4][3] + WK[5][3]
   + WK[6][3] + WK[7][3] >= 4
Bounds
Binaries
 WK[0][3] WK[1][3] WK[2][3] WK[3][3] WK[4][3] WK[5][3] WK[6][3] WK[7][3]
End
