assignment_problem/model.mps
NAME 
ROWS
 N  OBJ
 L  c0      
 L  c1      
 L  c2      
 L  c3      
 L  c4      
 L  c5      
 L  c6      
 L  c7      
 L  c8      
 L  c9      
 L  c10     
 L  c11     
 L  c12     
 L  c13     
 L  c14     
 L  c15     
 L  c16     
 L  c17     
 L  c18     
 L  c19     
 L  c20     
 L  c21     
 L  c22     
 L  c23     
 L  c24     
 L  c25     
 L  c26     
 L  c27     
 L  c28     
 L  c29     
 L  c30     
 L  c31     
 L  c32     
 L  c33     
 L  c34     
 L  c35     
 L  c36     
 L  c37     
 L  c38     
 L  c39     
 L  c40     
 L  c41     
 L  c42     
 L  c43     
 L  c44     
 L  c45     
 L  c46     
 L  c47     
 L  c48     
 L  c49     
 L  c50     
 L  c51     
 L  c52     
 L  c53     
 L  c54     
 L  c55     
 L  c56     
 L  c57     
 L  c58     
 L  c59     
 L  c60     
 L  c61     
 L  c62     
 L  c63     
 L  c64     
 L  c65     
 L  c66     
 L  c67     
 L  c68     
 L  c69     
 L  c70     
 L  c71     
 L  c72     
 L  c73     
 L  c74     
 L  c75     
 L  c76     
 L  c77     
 L  c78     
 L  c79     
 L  c80     
 L  c81     
 L  c82     
 L  c83     
 L  c84     
 L  c85     
 L  c86     
 L  c87     
 L  c88     
 L  c89     
 L  c90     
 L  c91     
 L  c92     
 L  c93     
 L  c94     
 L  c95     
 L  c96     
 L  c97     
 L  c98     
 L  c99     
 L  c100    
 L  c101    
 L  c102    
 L  c103    
 L  c104    
 L  c105    
 L  c106    
 L  c107    
 L  c108    
 L  c109    
 L  c110    
 L  c111    
 G  c112    
 L  c113    
 G  c114    
 L  c115    
 G  c116    
 L  c117    
 G  c118    
 L  c119    
 G  c120    
 L  c121    
 G  c122    
 L  c123    
 G  c124    
 L  c125    
 G  c126    
 L  c127    
 G  c128    
 G  c129    
 G  c130    
 G  c131    
 G  c132    
 G  c133    
 G  c134    
 G  c135    
 G  c136    
 G  c137    
 G  c138    
 G  c139    
 G  c140    
 G  c141    
COLUMNS
    MARKER    'MARKER'                 'INTORG'
    WK[0][0]  c0        1
    WK[0][0]  c112      -1
    WK[0][0]  c113      -1
    WK[0][0]  c128      1
    WK[0][1]  c1        1
    WK[0][1]  c112      -1
    WK[0][1]  c113      -1
    WK[0][1]  c129      1
    WK[0][2]  c2        1
    WK[0][2]  c112      -1
    WK[0][2]  c113      -1
    WK[0][2]  c130      1
    WK[0][3]  c3        1
    WK[0][3]  c112      -1
    WK[0][3]  c113      -1
    WK[0][3]  c131      1
    WK[0][4]  c4        1
    WK[0][4]  c112      -1
    WK[0][4]  c113      -1
    WK[0][4]  c132      1
    WK[0][5]  c5        1
    WK[0][5]  c112      -1
    WK[0][5]  c113      -1
    WK[0][5]  c133      1
    WK[0][6]  c6        1
    WK[0][6]  c112      -1
    WK[0][6]  c113      -1
    WK[0][6]  c134      1
    WK[0][7]  c7        1
    WK[0][7]  c112      -1
    WK[0][7]  c113      -1
    WK[0][7]  c135      1
    WK[0][8]  c8        1
    WK[0][8]  c112      -1
    WK[0][8]  c113      -1
    WK[0][8]  c136      1
    WK[0][9]  c9        1
    WK[0][9]  c112      -1
    WK[0][9]  c113      -1
    WK[0][9]  c137      1
    WK[0][10]  c10       1
    WK[0][10]  c112      -1
    WK[0][10]  c113      -1
    WK[0][10]  c138      1
    WK[0][11]  c11       1
    WK[0][11]  c112      -1
    WK[0][11]  c113      -1
    WK[0][11]  c139      1
    WK[0][12]  c12       1
    WK[0][12]  c112      -1
    WK[0][12]  c113      -1
    WK[0][12]  c140      1
    WK[0][13]  c13       1
    WK[0][13]  c112      -1
    WK[0][13]  c113      -1
    WK[0][13]  c141      1
    WK[1][0]  c14       1
    WK[1][0]  c114      -1
    WK[1][0]  c115      -1
    WK[1][0]  c128      1
    WK[1][1]  c15       1
    WK[1][1]  c114      -1
    WK[1][1]  c115      -1
    WK[1][1]  c129      1
    WK[1][2]  c16       1
    WK[1][2]  c114      -1
    WK[1][2]  c115      -1
    WK[1][2]  c130      1
    WK[1][3]  c17       1
    WK[1][3]  c114      -1
    WK[1][3]  c115      -1
    WK[1][3]  c131      1
    WK[1][4]  c18       1
    WK[1][4]  c114      -1
    WK[1][4]  c115      -1
    WK[1][4]  c132      1
    WK[1][5]  c19       1
    WK[1][5]  c114      -1
    WK[1][5]  c115      -1
    WK[1][5]  c133      1
    WK[1][6]  c20       1
    WK[1][6]  c114      -1
    WK[1][6]  c115      -1
    WK[1][6]  c134      1
    WK[1][7]  c21       1
    WK[1][7]  c114      -1
    WK[1][7]  c115      -1
    WK[1][7]  c135      1
    WK[1][8]  c22       1
    WK[1][8]  c114      -1
    WK[1][8]  c115      -1
    WK[1][8]  c136      1
    WK[1][9]  c23       1
    WK[1][9]  c114      -1
    WK[1][9]  c115      -1
    WK[1][9]  c137      1
    WK[1][10]  c24       1
    WK[1][10]  c114      -1
    WK[1][10]  c115      -1
    WK[1][10]  c138      1
    WK[1][11]  c25       1
    WK[1][11]  c114      -1
    WK[1][11]  c115      -1
    WK[1][11]  c139      1
    WK[1][12]  c26       1
    WK[1][12]  c114      -1
    WK[1][12]  c115      -1
    WK[1][12]  c140      1
    WK[1][13]  c27       1
    WK[1][13]  c114      -1
    WK[1][13]  c115      -1
    WK[1][13]  c141      1
    WK[2][0]  c28       1
    WK[2][0]  c116      -1
    WK[2][0]  c117      -1
    WK[2][0]  c128      1
    WK[2][1]  c29       1
    WK[2][1]  c116      -1
    WK[2][1]  c117      -1
    WK[2][1]  c129      1
    WK[2][2]  c30       1
    WK[2][2]  c116      -1
    WK[2][2]  c117      -1
    WK[2][2]  c130      1
    WK[2][3]  c31       1
    WK[2][3]  c116      -1
    WK[2][3]  c117      -1
    WK[2][3]  c131      1
    WK[2][4]  c32       1
    WK[2][4]  c116      -1
    WK[2][4]  c117      -1
    WK[2][4]  c132      1
    WK[2][5]  c33       1
    WK[2][5]  c116      -1
    WK[2][5]  c117      -1
    WK[2][5]  c133      1
    WK[2][6]  c34       1
    WK[2][6]  c116      -1
    WK[2][6]  c117      -1
    WK[2][6]  c134      1
    WK[2][7]  c35       1
    WK[2][7]  c116      -1
    WK[2][7]  c117      -1
    WK[2][7]  c135      1
    WK[2][8]  c36       1
    WK[2][8]  c116      -1
    WK[2][8]  c117      -1
    WK[2][8]  c136      1
    WK[2][9]  c37       1
    WK[2][9]  c116      -1
    WK[2][9]  c117      -1
    WK[2][9]  c137      1
    WK[2][10]  c38       1
    WK[2][10]  c116      -1
    WK[2][10]  c117      -1
    WK[2][10]  c138      1
    WK[2][11]  c39       1
    WK[2][11]  c116      -1
    WK[2][11]  c117      -1
    WK[2][11]  c139      1
    WK[2][12]  c40       1
    WK[2][12]  c116      -1
    WK[2][12]  c117      -1
    WK[2][12]  c140      1
    WK[2][13]  c41       1
    WK[2][13]  c116      -1
    WK[2][13]  c117      -1
    WK[2][13]  c141      1
    WK[3][0]  c42       1
    WK[3][0]  c118      -1
    WK[3][0]  c119      -1
    WK[3][0]  c128      1
    WK[3][1]  c43       1
    WK[3][1]  c118      -1
    WK[3][1]  c119      -1
    WK[3][1]  c129      1
    WK[3][2]  c44       1
    WK[3][2]  c118      -1
    WK[3][2]  c119      -1
    WK[3][2]  c130      1
    WK[3][3]  c45       1
    WK[3][3]  c118      -1
    WK[3][3]  c119      -1
    WK[3][3]  c131      1
    WK[3][4]  c46       1
    WK[3][4]  c118      -1
    WK[3][4]  c119      -1
    WK[3][4]  c132      1
    WK[3][5]  c47       1
    WK[3][5]  c118      -1
    WK[3][5]  c119      -1
    WK[3][5]  c133      1
    WK[3][6]  c48       1
    WK[3][6]  c118      -1
    WK[3][6]  c119      -1
    WK[3][6]  c134      1
    WK[3][7]  c49       1
    WK[3][7]  c118      -1
    WK[3][7]  c119      -1
    WK[3][7]  c135      1
    WK[3][8]  c50       1
    WK[3][8]  c118      -1
    WK[3][8]  c119      -1
    WK[3][8]  c136      1
    WK[3][9]  c51       1
    WK[3][9]  c118      -1
    WK[3][9]  c119      -1
    WK[3][9]  c137      1
    WK[3][10]  c52       1
    WK[3][10]  c118      -1
    WK[3][10]  c119      -1
    WK[3][10]  c138      1
    WK[3][11]  c53       1
    WK[3][11]  c118      -1
    WK[3][11]  c119      -1
    WK[3][11]  c139      1
    WK[3][12]  c54       1
    WK[3][12]  c118      -1
    WK[3][12]  c119      -1
    WK[3][12]  c140      1
    WK[3][13]  c55       1
    WK[3][13]  c118      -1
    WK[3][13]  c119      -1
    WK[3][13]  c141      1
    WK[4][0]  c56       1
    WK[4][0]  c120      -1
    WK[4][0]  c121      -1
    WK[4][0]  c128      1
    WK[4][1]  c57       1
    WK[4][1]  c120      -1
    WK[4][1]  c121      -1
    WK[4][1]  c129      1
    WK[4][2]  c58       1
    WK[4][2]  c120      -1
    WK[4][2]  c121      -1
    WK[4][2]  c130      1
    WK[4][3]  c59       1
    WK[4][3]  c120      -1
    WK[4][3]  c121      -1
    WK[4][3]  c131      1
    WK[4][4]  c60       1
    WK[4][4]  c120      -1
    WK[4][4]  c121      -1
    WK[4][4]  c132      1
    WK[4][5]  c61       1
    WK[4][5]  c120      -1
    WK[4][5]  c121      -1
    WK[4][5]  c133      1
    WK[4][6]  c62       1
    WK[4][6]  c120      -1
    WK[4][6]  c121      -1
    WK[4][6]  c134      1
    WK[4][7]  c63       1
    WK[4][7]  c120      -1
    WK[4][7]  c121      -1
    WK[4][7]  c135      1
    WK[4][8]  c64       1
    WK[4][8]  c120      -1
    WK[4][8]  c121      -1
    WK[4][8]  c136      1
    WK[4][9]  c65       1
    WK[4][9]  c120      -1
    WK[4][9]  c121      -1
    WK[4][9]  c137      1
    WK[4][10]  c66       1
    WK[4][10]  c120      -1
    WK[4][10]  c121      -1
    WK[4][10]  c138      1
    WK[4][11]  c67       1
    WK[4][11]  c120      -1
    WK[4][11]  c121      -1
    WK[4][11]  c139      1
    WK[4][12]  c68       1
    WK[4][12]  c120      -1
    WK[4][12]  c121      -1
    WK[4][12]  c140      1
    WK[4][13]  c69       1
    WK[4][13]  c120      -1
    WK[4][13]  c121      -1
    WK[4][13]  c141      1
    WK[5][0]  c70       1
    WK[5][0]  c122      -1
    WK[5][0]  c123      -1
    WK[5][0]  c128      1
    WK[5][1]  c71       1
    WK[5][1]  c122      -1
    WK[5][1]  c123      -1
    WK[5][1]  c129      1
    WK[5][2]  c72       1
    WK[5][2]  c122      -1
    WK[5][2]  c123      -1
    WK[5][2]  c130      1
    WK[5][3]  c73       1
    WK[5][3]  c122      -1
    WK[5][3]  c123      -1
    WK[5][3]  c131      1
    WK[5][4]  c74       1
    WK[5][4]  c122      -1
    WK[5][4]  c123      -1
    WK[5][4]  c132      1
    WK[5][5]  c75       1
    WK[5][5]  c122      -1
    WK[5][5]  c123      -1
    WK[5][5]  c133      1
    WK[5][6]  c76       1
    WK[5][6]  c122      -1
    WK[5][6]  c123      -1
    WK[5][6]  c134      1
    WK[5][7]  c77       1
    WK[5][7]  c122      -1
    WK[5][7]  c123      -1
    WK[5][7]  c135      1
    WK[5][8]  c78       1
    WK[5][8]  c122      -1
    WK[5][8]  c123      -1
    WK[5][8]  c136      1
    WK[5][9]  c79       1
    WK[5][9]  c122      -1
    WK[5][9]  c123      -1
    WK[5][9]  c137      1
    WK[5][10]  c80       1
    WK[5][10]  c122      -1
    WK[5][10]  c123      -1
    WK[5][10]  c138      1
    WK[5][11]  c81       1
    WK[5][11]  c122      -1
    WK[5][11]  c123      -1
    WK[5][11]  c139      1
    WK[5][12]  c82       1
    WK[5][12]  c122      -1
    WK[5][12]  c123      -1
    WK[5][12]  c140      1
    WK[5][13]  c83       1
    WK[5][13]  c122      -1
    WK[5][13]  c123      -1
    WK[5][13]  c141      1
    WK[6][0]  c84       1
    WK[6][0]  c124      -1
    WK[6][0]  c125      -1
    WK[6][0]  c128      1
    WK[6][1]  c85       1
    WK[6][1]  c124      -1
    WK[6][1]  c125      -1
    WK[6][1]  c129      1
    WK[6][2]  c86       1
    WK[6][2]  c124      -1
    WK[6][2]  c125      -1
    WK[6][2]  c130      1
    WK[6][3]  c87       1
    WK[6][3]  c124      -1
    WK[6][3]  c125      -1
    WK[6][3]  c131      1
    WK[6][4]  c88       1
    WK[6][4]  c124      -1
    WK[6][4]  c125      -1
    WK[6][4]  c132      1
    WK[6][5]  c89       1
    WK[6][5]  c124      -1
    WK[6][5]  c125      -1
    WK[6][5]  c133      1
    WK[6][6]  c90       1
    WK[6][6]  c124      -1
    WK[6][6]  c125      -1
    WK[6][6]  c134      1
    WK[6][7]  c91       1
    WK[6][7]  c124      -1
    WK[6][7]  c125      -1
    WK[6][7]  c135      1
    WK[6][8]  c92       1
    WK[6][8]  c124      -1
    WK[6][8]  c125      -1
    WK[6][8]  c136      1
    WK[6][9]  c93       1
    WK[6][9]  c124      -1
    WK[6][9]  c125      -1
    WK[6][9]  c137      1
    WK[6][10]  c94       1
    WK[6][10]  c124      -1
    WK[6][10]  c125      -1
    WK[6][10]  c138      1
    WK[6][11]  c95       1
    WK[6][11]  c124      -1
    WK[6][11]  c125      -1
    WK[6][11]  c139      1
    WK[6][12]  c96       1
    WK[6][12]  c124      -1
    WK[6][12]  c125      -1
    WK[6][12]  c140      1
    WK[6][13]  c97       1
    WK[6][13]  c124      -1
    WK[6][13]  c125      -1
    WK[6][13]  c141      1
    WK[7][0]  c98       1
    WK[7][0]  c126      -1
    WK[7][0]  c127      -1
    WK[7][0]  c128      1
    WK[7][1]  c99       1
    WK[7][1]  c126      -1
    WK[7][1]  c127      -1
    WK[7][1]  c129      1
    WK[7][2]  c100      1
    WK[7][2]  c126      -1
    WK[7][2]  c127      -1
    WK[7][2]  c130      1
    WK[7][3]  c101      1
    WK[7][3]  c126      -1
    WK[7][3]  c127      -1
    WK[7][3]  c131      1
    WK[7][4]  c102      1
    WK[7][4]  c126      -1
    WK[7][4]  c127      -1
    WK[7][4]  c132      1
    WK[7][5]  c103      1
    WK[7][5]  c126      -1
    WK[7][5]  c127      -1
    WK[7][5]  c133      1
    WK[7][6]  c104      1
    WK[7][6]  c126      -1
    WK[7][6]  c127      -1
    WK[7][6]  c134      1
    WK[7][7]  c105      1
    WK[7][7]  c126      -1
    WK[7][7]  c127      -1
    WK[7][7]  c135      1
    WK[7][8]  c106      1
    WK[7][8]  c126      -1
    WK[7][8]  c127      -1
    WK[7][8]  c136      1
    WK[7][9]  c107      1
    WK[7][9]  c126      -1
    WK[7][9]  c127      -1
    WK[7][9]  c137      1
    WK[7][10]  c108      1
    WK[7][10]  c126      -1
    WK[7][10]  c127      -1
    WK[7][10]  c138      1
    WK[7][11]  c109      1
    WK[7][11]  c126      -1
    WK[7][11]  c127      -1
    WK[7][11]  c139      1
    WK[7][12]  c110      1
    WK[7][12]  c126      -1
    WK[7][12]  c127      -1
    WK[7][12]  c140      1
    WK[7][13]  c111      1
    WK[7][13]  c126      -1
    WK[7][13]  c127      -1
    WK[7][13]  c141      1
    MARKER    'MARKER'                 'INTEND'
    C112      OBJ       1
    C112      c112      1
    C112      c114      1
    C112      c116      1
    C112      c118      1
    C112      c120      1
    C112      c122      1
    C112      c124      1
    C112      c126      1
    C113      OBJ       -1
    C113      c113      1
    C113      c115      1
    C113      c117      1
    C113      c119      1
    C113      c121      1
    C113      c123      1
    C113      c125      1
    C113      c127      1
    C114      OBJ       0
    C115      OBJ       0
    C116      OBJ       0
    C117      OBJ       0
    C118      OBJ       0
    C119      OBJ       0
    C120      OBJ       0
    C121      OBJ       0
    C122      OBJ       0
    C123      OBJ       0
    C124      OBJ       0
    C125      OBJ       0
    C126      OBJ       0
    C127      OBJ       0
RHS
    RHS1      c1        1
    RHS1      c2        1
    RHS1      c4        1
    RHS1      c6        1
    RHS1      c8        1
    RHS1      c9        1
    RHS1      c10       1
    RHS1      c11       1
    RHS1      c12       1
    RHS1      c13       1
    RHS1      c14       1
    RHS1      c15       1
    RHS1      c18       1
    RHS1      c19       1
    RHS1      c21       1
    RHS1      c24       1
    RHS1      c26       1
    RHS1      c30       1
    RHS1      c31       1
    RHS1      c32       1
    RHS1      c34       1
    RHS1      c35       1
    RHS1      c36       1
    RHS1      c37       1
    RHS1      c38       1
    RHS1      c39       1
    RHS1      c40       1
    RHS1      c41       1
    RHS1      c43       1
    RHS1      c44       1
    RHS1      c46       1
    RHS1      c47       1
    RHS1      c49       1
    RHS1      c50       1
    RHS1      c51       1
    RHS1      c52       1
    RHS1      c53       1
    RHS1      c54       1
    RHS1      c55       1
    RHS1      c56       1
    RHS1      c57       1
    RHS1      c58       1
    RHS1      c59       1
    RHS1      c60       1
    RHS1      c62       1
    RHS1      c63       1
    RHS1      c64       1
    RHS1      c66       1
    RHS1      c68       1
    RHS1      c69       1
    RHS1      c70       1
    RHS1      c71       1
    RHS1      c72       1
    RHS1      c75       1
    RHS1      c77       1
    RHS1      c78       1
    RHS1      c81       1
    RHS1      c82       1
    RHS1      c83       1
    RHS1      c85       1
    RHS1      c86       1
    RHS1      c87       1
    RHS1      c89       1
    RHS1      c90       1
    RHS1      c92       1
    RHS1      c93       1
    RHS1      c94       1
    RHS1      c96       1
    RHS1      c97       1
    RHS1      c98       1
    RHS1      c99       1
    RHS1      c100      1
    RHS1      c102      1
    RHS1      c103      1
    RHS1      c104      1
    RHS1      c105      1
    RHS1      c106      1
    RHS1      c107      1
    RHS1      c108      1
    RHS1      c109      1
    RHS1      c110      1
    RHS1      c111      1
    RHS1      c128      3
    RHS1      c129      2
    RHS1      c130      4
    RHS1      c131      4
    RHS1      c132      5
    RHS1      c133      6
    RHS1      c134      5
    RHS1      c135      2
    RHS1      c136      2
    RHS1      c137      3
    RHS1      c138      4
    RHS1      c139      6
    RHS1      c140      7
    RHS1      c141      5
BOUNDS
 BV BND1      WK[0][0]
 LO BND1      WK[0][0]  14
 UP BND1      WK[0][0]  1
 BV BND1      WK[0][1]
 LO BND1      WK[0][1]  14
 UP BND1      WK[0][1]  1
 BV BND1      WK[0][2]
 LO BND1      WK[0][2]  14
 UP BND1      WK[0][2]  1
 BV BND1      WK[0][3]
 LO BND1      WK[0][3]  14
 UP BND1      WK[0][3]  1
 BV BND1      WK[0][4]
 LO BND1      WK[0][4]  14
 UP BND1      WK[0][4]  1
 BV BND1      WK[0][5]
 LO BND1      WK[0][5]  14
 UP BND1      WK[0][5]  1
 BV BND1      WK[0][6]
 LO BND1      WK[0][6]  14
 UP BND1      WK[0][6]  1
 BV BND1      WK[0][7]
 LO BND1      WK[0][7]  14
 UP BND1      WK[0][7]  1
 BV BND1      WK[0][8]
 LO BND1      WK[0][8]  14
 UP BND1      WK[0][8]  1
 BV BND1      WK[0][9]
 LO BND1      WK[0][9]  14
 UP BND1      WK[0][9]  1
 BV BND1      WK[0][10]
 LO BND1      WK[0][10]  14
 UP BND1      WK[0][10]  1
 BV BND1      WK[0][11]
 LO BND1      WK[0][11]  14
 UP BND1      WK[0][11]  1
 BV BND1      WK[0][12]
 LO BND1      WK[0][12]  14
 UP BND1      WK[0][12]  1
 BV BND1      WK[0][13]
 LO BND1      WK[0][13]  14
 UP BND1      WK[0][13]  1
 BV BND1      WK[1][0]
 LO BND1      WK[1][0]  14
 UP BND1      WK[1][0]  1
 BV BND1      WK[1][1]
 LO BND1      WK[1][1]  14
 UP BND1      WK[1][1]  1
 BV BND1      WK[1][2]
 LO BND1      WK[1][2]  14
 UP BND1      WK[1][2]  1
 BV BND1      WK[1][3]
 LO BND1      WK[1][3]  14
 UP BND1      WK[1][3]  1
 BV BND1      WK[1][4]
 LO BND1      WK[1][4]  14
 UP BND1      WK[1][4]  1
 BV BND1      WK[1][5]
 LO BND1      WK[1][5]  14
 UP BND1      WK[1][5]  1
 BV BND1      WK[1][6]
 LO BND1      WK[1][6]  14
 UP BND1      WK[1][6]  1
 BV BND1      WK[1][7]
 LO BND1      WK[1][7]  14
 UP BND1      WK[1][7]  1
 BV BND1      WK[1][8]
 LO BND1      WK[1][8]  14
 UP BND1      WK[1][8]  1
 BV BND1      WK[1][9]
 LO BND1      WK[1][9]  14
 UP BND1      WK[1][9]  1
 BV BND1      WK[1][10]
 LO BND1      WK[1][10]  14
 UP BND1      WK[1][10]  1
 BV BND1      WK[1][11]
 LO BND1      WK[1][11]  14
 UP BND1      WK[1][11]  1
 BV BND1      WK[1][12]
 LO BND1      WK[1][12]  14
 UP BND1      WK[1][12]  1
 BV BND1      WK[1][13]
 LO BND1      WK[1][13]  14
 UP BND1      WK[1][13]  1
 BV BND1      WK[2][0]
 LO BND1      WK[2][0]  14
 UP BND1      WK[2][0]  1
 BV BND1      WK[2][1]
 LO BND1      WK[2][1]  14
 UP BND1      WK[2][1]  1
 BV BND1      WK[2][2]
 LO BND1      WK[2][2]  14
 UP BND1      WK[2][2]  1
 BV BND1      WK[2][3]
 LO BND1      WK[2][3]  14
 UP BND1      WK[2][3]  1
 BV BND1      WK[2][4]
 LO BND1      WK[2][4]  14
 UP BND1      WK[2][4]  1
 BV BND1      WK[2][5]
 LO BND1      WK[2][5]  14
 UP BND1      WK[2][5]  1
 BV BND1      WK[2][6]
 LO BND1      WK[2][6]  14
 UP BND1      WK[2][6]  1
 BV BND1      WK[2][7]
 LO BND1      WK[2][7]  14
 UP BND1      WK[2][7]  1
 BV BND1      WK[2][8]
 LO BND1      WK[2][8]  14
 UP BND1      WK[2][8]  1
 BV BND1      WK[2][9]
 LO BND1      WK[2][9]  14
 UP BND1      WK[2][9]  1
 BV BND1      WK[2][10]
 LO BND1      WK[2][10]  14
 UP BND1      WK[2][10]  1
 BV BND1      WK[2][11]
 LO BND1      WK[2][11]  14
 UP BND1      WK[2][11]  1
 BV BND1      WK[2][12]
 LO BND1      WK[2][12]  14
 UP BND1      WK[2][12]  1
 BV BND1      WK[2][13]
 LO BND1      WK[2][13]  14
 UP BND1      WK[2][13]  1
 BV BND1      WK[3][0]
 LO BND1      WK[3][0]  14
 UP BND1      WK[3][0]  1
 BV BND1      WK[3][1]
 LO BND1      WK[3][1]  14
 UP BND1      WK[3][1]  1
 BV BND1      WK[3][2]
 LO BND1      WK[3][2]  14
 UP BND1      WK[3][2]  1
 BV BND1      WK[3][3]
 LO BND1      WK[3][3]  14
 UP BND1      WK[3][3]  1
 BV BND1      WK[3][4]
 LO BND1      WK[3][4]  14
 UP BND1      WK[3][4]  1
 BV BND1      WK[3][5]
 LO BND1      WK[3][5]  14
 UP BND1      WK[3][5]  1
 BV BND1      WK[3][6]
 LO BND1      WK[3][6]  14
 UP BND1      WK[3][6]  1
 BV BND1      WK[3][7]
 LO BND1      WK[3][7]  14
 UP BND1      WK[3][7]  1
 BV BND1      WK[3][8]
 LO BND1      WK[3][8]  14
 UP BND1      WK[3][8]  1
 BV BND1      WK[3][9]
 LO BND1      WK[3][9]  14
 UP BND1      WK[3][9]  1
 BV BND1      WK[3][10]
 LO BND1      WK[3][10]  14
 UP BND1      WK[3][10]  1
 BV BND1      WK[3][11]
 LO BND1      WK[3][11]  14
 UP BND1      WK[3][11]  1
 BV BND1      WK[3][12]
 LO BND1      WK[3][12]  14
 UP BND1      WK[3][12]  1
 BV BND1      WK[3][13]
 LO BND1      WK[3][13]  14
 UP BND1      WK[3][13]  1
 BV BND1      WK[4][0]
 LO BND1      WK[4][0]  14
 UP BND1      WK[4][0]  1
 BV BND1      WK[4][1]
 LO BND1      WK[4][1]  14
 UP BND1      WK[4][1]  1
 BV BND1      WK[4][2]
 LO BND1      WK[4][2]  14
 UP BND1      WK[4][2]  1
 BV BND1      WK[4][3]
 LO BND1      WK[4][3]  14
 UP BND1      WK[4][3]  1
 BV BND1      WK[4][4]
 LO BND1      WK[4][4]  14
 UP BND1      WK[4][4]  1
 BV BND1      WK[4][5]
 LO BND1      WK[4][5]  14
 UP BND1      WK[4][5]  1
 BV BND1      WK[4][6]
 LO BND1      WK[4][6]  14
 UP BND1      WK[4][6]  1
 BV BND1      WK[4][7]
 LO BND1      WK[4][7]  14
 UP BND1      WK[4][7]  1
 BV BND1      WK[4][8]
 LO BND1      WK[4][8]  14
 UP BND1      WK[4][8]  1
 BV BND1      WK[4][9]
 LO BND1      WK[4][9]  14
 UP BND1      WK[4][9]  1
 BV BND1      WK[4][10]
 LO BND1      WK[4][10]  14
 UP BND1      WK[4][10]  1
 BV BND1      WK[4][11]
 LO BND1      WK[4][11]  14
 UP BND1      WK[4][11]  1
 BV BND1      WK[4][12]
 LO BND1      WK[4][12]  14
 UP BND1      WK[4][12]  1
 BV BND1      WK[4][13]
 LO BND1      WK[4][13]  14
 UP BND1      WK[4][13]  1
 BV BND1      WK[5][0]
 LO BND1      WK[5][0]  14
 UP BND1      WK[5][0]  1
 BV BND1      WK[5][1]
 LO BND1      WK[5][1]  14
 UP BND1      WK[5][1]  1
 BV BND1      WK[5][2]
 LO BND1      WK[5][2]  14
 UP BND1      WK[5][2]  1
 BV BND1      WK[5][3]
 LO BND1      WK[5][3]  14
 UP BND1      WK[5][3]  1
 BV BND1      WK[5][4]
 LO BND1      WK[5][4]  14
 UP BND1      WK[5][4]  1
 BV BND1      WK[5][5]
 LO BND1      WK[5][5]  14
 UP BND1      WK[5][5]  1
 BV BND1      WK[5][6]
 LO BND1      WK[5][6]  14
 UP BND1      WK[5][6]  1
 BV BND1      WK[5][7]
 LO BND1      WK[5][7]  14
 UP BND1      WK[5][7]  1
 BV BND1      WK[5][8]
 LO BND1      WK[5][8]  14
 UP BND1      WK[5][8]  1
 BV BND1      WK[5][9]
 LO BND1      WK[5][9]  14
 UP BND1      WK[5][9]  1
 BV BND1      WK[5][10]
 LO BND1      WK[5][10]  14
 UP BND1      WK[5][10]  1
 BV BND1      WK[5][11]
 LO BND1      WK[5][11]  14
 UP BND1      WK[5][11]  1
 BV BND1      WK[5][12]
 LO BND1      WK[5][12]  14
 UP BND1      WK[5][12]  1
 BV BND1      WK[5][13]
 LO BND1      WK[5][13]  14
 UP BND1      WK[5][13]  1
 BV BND1      WK[6][0]
 LO BND1      WK[6][0]  14
 UP BND1      WK[6][0]  1
 BV BND1      WK[6][1]
 LO BND1      WK[6][1]  14
 UP BND1      WK[6][1]  1
 BV BND1      WK[6][2]
 LO BND1      WK[6][2]  14
 UP BND1      WK[6][2]  1
 BV BND1      WK[6][3]
 LO BND1      WK[6][3]  14
 UP BND1      WK[6][3]  1
 BV BND1      WK[6][4]
 LO BND1      WK[6][4]  14
 UP BND1      WK[6][4]  1
 BV BND1      WK[6][5]
 LO BND1      WK[6][5]  14
 UP BND1      WK[6][5]  1
 BV BND1      WK[6][6]
 LO BND1      WK[6][6]  14
 UP BND1      WK[6][6]  1
 BV BND1      WK[6][7]
 LO BND1      WK[6][7]  14
 UP BND1      WK[6][7]  1
 BV BND1      WK[6][8]
 LO BND1      WK[6][8]  14
 UP BND1      WK[6][8]  1
 BV BND1      WK[6][9]
 LO BND1      WK[6][9]  14
 UP BND1      WK[6][9]  1
 BV BND1      WK[6][10]
 LO BND1      WK[6][10]  14
 UP BND1      WK[6][10]  1
 BV BND1      WK[6][11]
 LO BND1      WK[6][11]  14
 UP BND1      WK[6][11]  1
 BV BND1      WK[6][12]
 LO BND1      WK[6][12]  14
 UP BND1      WK[6][12]  1
 BV BND1      WK[6][13]
 LO BND1      WK[6][13]  14
 UP BND1      WK[6][13]  1
 BV BND1      WK[7][0]
 LO BND1      WK[7][0]  14
 UP BND1      WK[7][0]  1
 BV BND1      WK[7][1]
 LO BND1      WK[7][1]  14
 UP BND1      WK[7][1]  1
 BV BND1      WK[7][2]
 LO BND1      WK[7][2]  14
 UP BND1      WK[7][2]  1
 BV BND1      WK[7][3]
 LO BND1      WK[7][3]  14
 UP BND1      WK[7][3]  1
 BV BND1      WK[7][4]
 LO BND1      WK[7][4]  14
 UP BND1      WK[7][4]  1
 BV BND1      WK[7][5]
 LO BND1      WK[7][5]  14
 UP BND1      WK[7][5]  1
 BV BND1      WK[7][6]
 LO BND1      WK[7][6]  14
 UP BND1      WK[7][6]  1
 BV BND1      WK[7][7]
 LO BND1      WK[7][7]  14
 UP BND1      WK[7][7]  1
 BV BND1      WK[7][8]
 LO BND1      WK[7][8]  14
 UP BND1      WK[7][8]  1
 BV BND1      WK[7][9]
 LO BND1      WK[7][9]  14
 UP BND1      WK[7][9]  1
 BV BND1      WK[7][10]
 LO BND1      WK[7][10]  14
 UP BND1      WK[7][10]  1
 BV BND1      WK[7][11]
 LO BND1      WK[7][11]  14
 UP BND1      WK[7][11]  1
 BV BND1      WK[7][12]
 LO BND1      WK[7][12]  14
 UP BND1      WK[7][12]  1
 BV BND1      WK[7][13]
 LO BND1      WK[7][13]  14
 UP BND1      WK[7][13]  1
ENDATA
